NAME          
ROWS
 N  OBJ
 L  c1
 L  c2
 L  c3
 L  c4
COLUMNS
    MARKER    'MARKER'                 'INTORG'
    x[1]      c1        305
    x[1]      c2        470
    x[1]      c3        913
    x[1]      c4        302
    x[1]      OBJ       -89
    x[2]      c1        177
    x[2]      c2        755
    x[2]      c3        439
    x[2]      c4        544
    x[2]      OBJ       -471
    x[3]      c1        673
    x[3]      c2        667
    x[3]      c3        798
    x[3]      c4        156
    x[3]      OBJ       -199
    x[4]      c1        966
    x[4]      c2        61
    x[4]      c3        223
    x[4]      c4        551
    x[4]      OBJ       -464
    x[5]      c1        553
    x[5]      c2        436
    x[5]      c3        597
    x[5]      c4        794
    x[5]      OBJ       -481
    x[6]      c1        536
    x[6]      c2        869
    x[6]      c3        545
    x[6]      c4        503
    x[6]      OBJ       -375
    x[7]      c1        505
    x[7]      c2        227
    x[7]      c3        567
    x[7]      c4        616
    x[7]      OBJ       -324
    x[8]      c1        259
    x[8]      c2        514
    x[8]      c3        794
    x[8]      c4        508
    x[8]      OBJ       -940
    x[9]      c1        562
    x[9]      c2        873
    x[9]      c3        410
    x[9]      c4        480
    x[9]      OBJ       -43
    x[10]     c1        676
    x[10]     c2        160
    x[10]     c3        154
    x[10]     c4        479
    x[10]     OBJ       -430
    x[11]     c1        916
    x[11]     c2        414
    x[11]     c3        571
    x[11]     c4        480
    x[11]     OBJ       -589
    x[12]     c1        536
    x[12]     c2        722
    x[12]     c3        965
    x[12]     c4        423
    x[12]     OBJ       -767
    x[13]     c1        289
    x[13]     c2        514
    x[13]     c3        50
    x[13]     c4        935
    x[13]     OBJ       -884
    x[14]     c1        557
    x[14]     c2        37
    x[14]     c3        302
    x[14]     c4        296
    x[14]     OBJ       -513
    x[15]     c1        101
    x[15]     c2        506
    x[15]     c3        724
    x[15]     c4        793
    x[15]     OBJ       -905
    x[16]     c1        895
    x[16]     c2        133
    x[16]     c3        248
    x[16]     c4        842
    x[16]     OBJ       -604
    x[17]     c1        793
    x[17]     c2        280
    x[17]     c3        583
    x[17]     c4        696
    x[17]     OBJ       -553
    x[18]     c1        563
    x[18]     c2        179
    x[18]     c3        770
    x[18]     c4        162
    x[18]     OBJ       -355
    x[19]     c1        270
    x[19]     c2        634
    x[19]     c3        160
    x[19]     c4        931
    x[19]     OBJ       -504
    x[20]     c1        156
    x[20]     c2        420
    x[20]     c3        427
    x[20]     c4        321
    x[20]     OBJ       -525
    x[21]     c1        295
    x[21]     c2        179
    x[21]     c3        256
    x[21]     c4        133
    x[21]     OBJ       -719
    x[22]     c1        280
    x[22]     c2        928
    x[22]     c3        508
    x[22]     c4        224
    x[22]     OBJ       -33
    x[23]     c1        940
    x[23]     c2        187
    x[23]     c3        967
    x[23]     c4        546
    x[23]     OBJ       -35
    x[24]     c1        49
    x[24]     c2        583
    x[24]     c3        861
    x[24]     c4        705
    x[24]     OBJ       -951
    x[25]     c1        30
    x[25]     c2        109
    x[25]     c3        760
    x[25]     c4        415
    x[25]     OBJ       -852
    x[26]     c1        779
    x[26]     c2        760
    x[26]     c3        730
    x[26]     c4        482
    x[26]     OBJ       -686
    x[27]     c1        803
    x[27]     c2        537
    x[27]     c3        531
    x[27]     c4        741
    x[27]     OBJ       -278
    x[28]     c1        134
    x[28]     c2        824
    x[28]     c3        9
    x[28]     c4        621
    x[28]     OBJ       -149
    x[29]     c1        612
    x[29]     c2        28
    x[29]     c3        487
    x[29]     c4        629
    x[29]     OBJ       -738
    x[30]     c1        394
    x[30]     c2        921
    x[30]     c3        561
    x[30]     c4        907
    x[30]     OBJ       -231
    x[31]     c1        100
    x[31]     c2        136
    x[31]     c3        942
    x[31]     c4        886
    x[31]     OBJ       -9
    x[32]     c1        823
    x[32]     c2        446
    x[32]     c3        27
    x[32]     c4        267
    x[32]     OBJ       -997
    x[33]     c1        589
    x[33]     c2        837
    x[33]     c3        512
    x[33]     c4        347
    x[33]     OBJ       -419
    x[34]     c1        328
    x[34]     c2        609
    x[34]     c3        44
    x[34]     c4        218
    x[34]     OBJ       -711
    x[35]     c1        391
    x[35]     c2        917
    x[35]     c3        843
    x[35]     c4        367
    x[35]     OBJ       -350
    x[36]     c1        26
    x[36]     c2        900
    x[36]     c3        233
    x[36]     c4        27
    x[36]     OBJ       -758
    x[37]     c1        576
    x[37]     c2        507
    x[37]     c3        47
    x[37]     c4        647
    x[37]     OBJ       -810
    x[38]     c1        47
    x[38]     c2        839
    x[38]     c3        629
    x[38]     c4        315
    x[38]     OBJ       -249
    x[39]     c1        763
    x[39]     c2        904
    x[39]     c3        780
    x[39]     c4        450
    x[39]     OBJ       -919
    x[40]     c1        349
    x[40]     c2        638
    x[40]     c3        974
    x[40]     c4        103
    x[40]     OBJ       -944
    x[41]     c1        276
    x[41]     c2        459
    x[41]     c3        381
    x[41]     c4        873
    x[41]     OBJ       -251
    x[42]     c1        448
    x[42]     c2        294
    x[42]     c3        917
    x[42]     c4        334
    x[42]     OBJ       -61
    x[43]     c1        547
    x[43]     c2        277
    x[43]     c3        888
    x[43]     c4        710
    x[43]     OBJ       -899
    x[44]     c1        713
    x[44]     c2        264
    x[44]     c3        464
    x[44]     c4        16
    x[44]     OBJ       -103
    x[45]     c1        357
    x[45]     c2        249
    x[45]     c3        181
    x[45]     c4        951
    x[45]     OBJ       -786
    x[46]     c1        394
    x[46]     c2        476
    x[46]     c3        414
    x[46]     c4        265
    x[46]     OBJ       -666
    x[47]     c1        166
    x[47]     c2        912
    x[47]     c3        262
    x[47]     c4        593
    x[47]     OBJ       -550
    x[48]     c1        676
    x[48]     c2        922
    x[48]     c3        846
    x[48]     c4        991
    x[48]     OBJ       -627
    x[49]     c1        477
    x[49]     c2        8
    x[49]     c3        96
    x[49]     c4        471
    x[49]     OBJ       -582
    x[50]     c1        626
    x[50]     c2        621
    x[50]     c3        340
    x[50]     c4        158
    x[50]     OBJ       -645
RHS
    rhs       c1        11638
    rhs       c2        12571
    rhs       c3        12865
    rhs       c4        12602
RANGES
BOUNDS
 BV bounds    x[1]
 BV bounds    x[2]
 BV bounds    x[3]
 BV bounds    x[4]
 BV bounds    x[5]
 BV bounds    x[6]
 BV bounds    x[7]
 BV bounds    x[8]
 BV bounds    x[9]
 BV bounds    x[10]
 BV bounds    x[11]
 BV bounds    x[12]
 BV bounds    x[13]
 BV bounds    x[14]
 BV bounds    x[15]
 BV bounds    x[16]
 BV bounds    x[17]
 BV bounds    x[18]
 BV bounds    x[19]
 BV bounds    x[20]
 BV bounds    x[21]
 BV bounds    x[22]
 BV bounds    x[23]
 BV bounds    x[24]
 BV bounds    x[25]
 BV bounds    x[26]
 BV bounds    x[27]
 BV bounds    x[28]
 BV bounds    x[29]
 BV bounds    x[30]
 BV bounds    x[31]
 BV bounds    x[32]
 BV bounds    x[33]
 BV bounds    x[34]
 BV bounds    x[35]
 BV bounds    x[36]
 BV bounds    x[37]
 BV bounds    x[38]
 BV bounds    x[39]
 BV bounds    x[40]
 BV bounds    x[41]
 BV bounds    x[42]
 BV bounds    x[43]
 BV bounds    x[44]
 BV bounds    x[45]
 BV bounds    x[46]
 BV bounds    x[47]
 BV bounds    x[48]
 BV bounds    x[49]
 BV bounds    x[50]
ENDATA
